c turning on binary mode checking
c parsing input formula with 202048 variables and 780980 clauses
c finished parsing, read 2860773 bytes from proof file
c detected empty clause; start verification via backward checking
c 7488 of 780980 clauses in core                            
c 2615 of 107048 lemmas in core using 147661 resolution steps
c 0 RAT lemmas in core; 680 redundant literals in core lemmas
s VERIFIED
c verification time: 1.137 seconds
